50,2
1,5,5
2,10,10
3,9,13
4,10,25
5,6,20
6,2,18,5
7,8,31,2,4
8,4,26,5
9,6,32
10,9,36,7
11,10,47
12,7,43,2
13,9,51,5,6
14,3,50,4,10,12
15,7,57,4,12,14
16,10,63,9
17,8,61,7,10,12,14
18,7,72,11,13
19,8,73,12,14,17
20,2,71,13,16
21,3,75,16,18,20
22,7,79,12,15,17,19
23,5,83,18,20
24,7,83,15,17
25,3,79,16,18
26,4,85,20,21,23
27,5,94,22,24
28,10,98,21
29,2,86,22
30,6,100,22,27,29
31,8,107,23,25,26
32,5,106,22,29
33,8,105,24
34,9,115,26
35,8,116,27,32,33
36,2,110,26
37,4,118,31
38,2,119,28,34
39,5,123,30,33,35
40,10,135,31,37
41,7,132,32
42,7,139,34,36,40
43,5,132,35
44,2,137,39,41
45,5,140,37
46,6,148,43,44
47,7,154,37
48,8,152
49,6,152,40,47
50,10,156,43,46
